O   H   
      1.000000000000
     13.606200218201        0.000000000000        0.000000000000
      0.000000000000       13.244700431824        0.000000000000
      0.000000000000        0.000000000000       13.244700431824
 80  160 
Direct
0.438043355942	0.081418983638	0.3263261246674
0.792544186115	0.897707760334	0.85480236470618
0.780590653419	0.53031027317	0.26190385460701
0.29549279809	0.3454400599	0.50050696432594
0.815707564354	0.336399465799	0.46857782483105
0.314745366573	0.161505356431	0.82450233459385
0.170378133655	0.16379378736	0.44222439467866
0.134790062904	0.913467288017	0.58897241890421
0.969159841537	0.140903159976	0.77973660230521
0.975393176079	0.814136922359	0.068499446213
0.209209918976	0.490699648857	0.84014383554442
0.185915052891	0.575578153133	0.63269989490356
0.838416874409	0.478689670563	0.83647934257833
0.016907572746	0.684176325798	0.73468240976317
0.346456676722	0.652938127518	0.59488529682021
0.728311538696	0.914190530777	0.23038711964994
0.13058257103	0.190605297685	0.70237497269973
0.838442921638	0.637079775333	0.7113611561045
0.148578047752	0.695972681046	0.19625083565593
0.014421621338	0.436459869146	0.25922924399229
0.228310525417	0.227517426014	0.29632882177712
0.708030283451	0.162304908037	0.89789696693389
0.862810134888	0.014386660419	0.76236968994164
0.546568572521	0.825279533863	0.69240570604667
0.588802158833	0.625654041767	0.62790084361961
0.564198613167	0.63111358881	0.37168304443336
0.362641692162	0.586323559284	0.27025058805789
0.739541888237	0.092617422342	0.22962394833433
0.091733649373	0.720303237438	0.39401419281983
0.925583839417	0.762644708157	0.27164629876483
0.770347237587	0.816134750843	0.43565155804005
0.665160059929	0.926196873188	0.65553986132151
0.653710067272	0.246059179306	0.33079514086124
0.087479948997	0.241149291396	0.14905135929563
0.823944866657	0.941578924656	0.5565413719404
0.268838852644	0.533316731453	0.41775487303649
0.695213735104	0.752026855946	0.20620639264522
0.375897347927	0.627234995365	0.79626521885394
0.460283637047	0.398687809706	0.59499530851816
0.475756913424	0.708236455917	0.21101224303225
0.754987835884	0.160440042615	0.53078626275059
0.636119782925	0.208785414696	0.70231322348022
0.903455615044	0.494161427021	0.55843899011626
0.417445659637	0.407840907574	0.92746804416123
0.29699626565	0.740746855736	0.43279816448583
0.227028012276	0.408949255943	0.28986599683646
0.440924733877	0.388861954212	0.22748568653998
0.494513720274	0.87299823761	0.28480557024447
0.926609694958	0.33208528161	0.64834830641669
0.527847290039	0.063771471381	0.16641860604138
0.507110476494	0.22748722136	0.46448008417998
0.337380409241	0.880341589451	0.66056584656205
0.999577343464	0.83756518364	0.96048359096063
0.602131485939	0.474531710148	0.52305813610457
0.248973935843	0.30147755146	0.66909125149108
0.623176336288	0.022508023307	0.46849523246251
0.090253472328	0.371616572142	0.46377866208575
0.48077237606	0.253467410803	0.0842646127936799
0.808465301991	0.314849704504	0.81227777242645
0.697178542614	0.724510133266	0.83452666282656
0.729389071465	0.657970309258	0.49448407471199
0.1404902637	0.92036062479	0.8185483276828
0.091316461563	0.244141444564	0.88789325892938
0.16999578476	0.9680159688	0.38590119242675
0.014314615168	0.794408321381	0.56048774897951
0.567033529282	0.453162431717	0.84317578911731
0.037469029427	0.09401345253	0.24897118270365
0.300204396248	0.068086780608	0.60356897592563
0.439251124859	0.281305074692	0.76401964247136
0.914473414421	0.352196723223	0.0498877409090501
0.370479613543	0.975621521473	0.89384046673735
0.189230680466	0.007143401541	0.12553070247113
0.442013382912	0.763584673405	0.84644181013018
0.909634530544	0.030844187364	0.3819960558403
0.146354079247	0.734149575233	0.83106814920855
0.931391596794	0.296671122313	0.31322169184658
0.480189204216	0.106102064252	0.65752687096525
0.061388731003	0.419042319059	0.80217096328655
0.650929033756	0.560125946999	0.10333698511015
0.443442583084	0.825530230999	0.45996291696905
0.355511516333	0.122143208981	0.32680741190812
0.464281797409	0.113646969199	0.37760283291192
0.867496073246	0.859293937683	0.88436619698878
0.808129787445	0.947194635868	0.81387299776057
0.721130013466	0.542635917664	0.30827829897271
0.756619155407	0.520701169968	0.19645714938619
0.372453451157	0.286232233047	0.49858192682254
0.309697747231	0.405906528234	0.49609312117123
0.864446759224	0.336482524872	0.52159376561556
0.739349603653	0.387459158897	0.48622673273086
0.36669844389	0.142000943422	0.76991178870155
0.25894716382	0.234131410718	0.81581196784857
0.202198624611	0.184066057205	0.38392800390626
0.126220852137	0.236056685448	0.46439080417158
0.205208897591	0.880057692528	0.62958546042348
0.122717738152	0.983857691288	0.57586118698031
0.031060459092	0.160562336445	0.76644658744181
0.901749789715	0.198764786124	0.80512065887308
0.042033553123	0.786103129387	0.10990982174876
0.990060567856	0.757012188435	0.02551452129919
0.189989686012	0.513926327229	0.77625100374184
0.141086950898	0.535766005516	0.8805160105225
0.236357077956	0.607157588005	0.61385445654368
0.178038552403	0.553539931774	0.56796809851991
0.790577411652	0.551548182964	0.84248841106903
0.916688978672	0.470173001289	0.82450233459385
0.074676275253	0.633334875107	0.69406268060217
0.054832100868	0.705930709839	0.7853746181721
0.312356382608	0.701926767826	0.54453694462651
0.400933861732	0.583315610886	0.57091088354575
0.806223392487	0.870437264442	0.24925997733923
0.714160203934	0.85404497385	0.22067220628101
0.181067943573	0.125748410821	0.67062450468486
0.154820859432	0.245345696807	0.69243323683743
0.90474486351	0.655229628086	0.70712587296846
0.846635580063	0.582977354527	0.66525466322909
0.143834233284	0.748376369476	0.24136700034018
0.227910757065	0.644244849682	0.20861282885069
0.992769300938	0.380183011293	0.26351958870798
0.934986710548	0.494555532932	0.25896106958304
0.241483211517	0.286204278469	0.31560048580181
0.184602469206	0.248105287552	0.23676735222206
0.654385328293	0.136679574847	0.91980902314081
0.682693600655	0.231073558331	0.92874694406901
0.914257347584	0.047959029675	0.74874941706543
0.807451367378	0.066359370947	0.80432304620602
0.58500534296	0.852496504784	0.65133901953692
0.593699634075	0.802816212177	0.75078457772626
0.55920779705	0.686519145966	0.66753737807284
0.650731146336	0.632613062859	0.59345525622317
0.566031455994	0.570330798626	0.40952506184425
0.603727281094	0.656254947186	0.4193430763467
0.394378900528	0.50978577137	0.25891291856782
0.415228247643	0.611330628395	0.24019142448862
0.773147165775	0.09248907119	0.16871491908942
0.738675713539	0.023958869278	0.23076519429579
0.051898941398	0.753423690796	0.45141666889099
0.137304127216	0.652926027775	0.42315893292288
0.959803581238	0.736858487129	0.20793213844227
0.998015940189	0.729266822338	0.30558317959301
0.813995480537	0.829062223434	0.38700130939503
0.793162822723	0.844657838345	0.49033829450518
0.686447441578	0.921213746071	0.7204639273876
0.739200890064	0.917416036129	0.62924160420825
0.687086880207	0.189962804317	0.27932594001158
0.691331207752	0.292520016432	0.32804495990189
0.060961961746	0.202173724771	0.18887358725092
0.02459192276	0.275877147913	0.10317882239698
0.901044309139	0.890719294548	0.54248116373935
0.82551920414	0.006369537208	0.57154331147573
0.243115231395	0.484515309334	0.38583944320537
0.297820985317	0.563266038895	0.36539889097085
0.623437702656	0.7930341959	0.23882324457057
0.726746976376	0.677225649357	0.22514111101537
0.398878991604	0.680292487144	0.8182111591093
0.354133576155	0.643446147442	0.7283020657297
0.501210927963	0.322169601917	0.58652485370556
0.429561376572	0.412601292133	0.658840100765
0.505554080009	0.678247869015	0.27325512230324
0.470246106386	0.78258472681	0.21241486430175
0.825772166252	0.1245630458	0.4912527179714
0.731998801231	0.2332329005	0.51931796133437
0.663130104542	0.190355360508	0.63881897509034
0.70779633522	0.186874747276	0.73548002243023
0.967827260494	0.462553292513	0.51354964792725
0.907866477966	0.440403342247	0.60409830272209
0.340703219175	0.424981296062	0.90537742793564
0.412113189697	0.437451958656	0.99056337475623
0.21907581389	0.796508789062	0.42593653321164
0.320141434669	0.698347270489	0.37648198425783
0.152975320816	0.426487594843	0.26089992821156
0.273847579956	0.416027575731	0.24270776092882
0.445826172829	0.352288067341	0.16978750526881
0.465996533632	0.331106007099	0.27311746835692
0.483600407839	0.86278295517	0.35137992322433
0.498692005873	0.941037774086	0.28338935077068
0.874416649342	0.331512957811	0.69526578724262
0.003280759091	0.283291429281	0.66574999451576
0.484117865562	0.080304570496	0.22479747772097
0.605445027351	0.01660973765	0.18546333610948
0.546699166298	0.250334143639	0.42110326349707
0.562588214874	0.158259510994	0.48521611869181
0.415944218636	0.861294686794	0.67715610086894
0.306459188461	0.954344332218	0.63831026852021
0.041370511055	0.812626957893	0.99535819053506
0.048087120056	0.793941736221	0.91191593468041
0.607441604137	0.521226644516	0.57289087116558
0.55425632	0.44155472517	0.54917081117525
0.326117753983	0.284318268299	0.69410392105483
0.240225031972	0.335153669119	0.60752226352543
0.613753378391	0.959940373898	0.45429068267341
0.701985955238	0.997833549976	0.49617549061707
0.054504036903	0.403221696615	0.40240227818472
0.168336138129	0.358455091715	0.45993538618016
0.506866455078	0.188789471984	0.11424129545576
0.530769824982	0.227456256747	0.0300385433429401
0.818159341812	0.377705037594	0.81899517357207
0.729517102242	0.34551936388	0.79473887622272
0.744745373726	0.740723490715	0.87501576006328
0.744748175144	0.694198489189	0.77486209213611
0.762987494469	0.695562005043	0.45425635278144
0.795677363873	0.598709642887	0.5218551409236
0.085246354342	0.995145201683	0.81713890731209
0.218322053552	0.913520097733	0.80967215597598
0.072231292725	0.194061800838	0.92606542289173
0.135366469622	0.207470908761	0.8319278454773
0.249190568924	0.922116756439	0.3912572127574
0.168804526329	0.033864337951	0.40996510863231
0.044301267713	0.839120566845	0.58316977560512
0.043316446245	0.746296226978	0.61470713078852
0.517514646053	0.5269292593	0.82500424206277
0.517237484455	0.419503569603	0.86737724780971
0.080532550812	0.037046968937	0.29194919705303
0.084710717201	0.061650171876	0.19176810979832
0.262500554323	0.115776121616	0.55262230276935
0.374994188547	0.067539542913	0.60754979431619
0.436156064272	0.324665665627	0.81869266927085
0.516372978687	0.252063155174	0.73373365640498
0.902735888958	0.312609583139	0
0.852691888809	0.421022772789	0.05162028580918
0.343126773834	0.988787591457	0.95701147913833
0.356322586536	0.041852440685	0.86299071252306
0.232639670372	0.046115882695	0.12047729790118
0.216433882713	0.951733827591	0.07972002625334
0.525437355042	0.72955673933	0.86282575070868
0.429295778275	0.834506630898	0.85124766051721
0.852099359035	0.069322824478	0.33205330908321
0.983052015305	0.000595060992	0.35141447603713
0.137892484665	0.805680751801	0.81958647251074
0.22711122036	0.685172915459	0.83174192905441
0.873027920723	0.31479460001	0.36101937770811
0.968906164169	0.220636188984	0.3037955731151
0.54627841711	0.040117025375	0.64455986916992
0.497340708971	0.15305365622	0.6967440903181
0.078676216304	0.355742305517	0.83821199893794
0.125246167183	0.403247326612	0.76181260943359
0.595496714115	0.622373461723	0.14104837059863
0.659343659878	0.585455298424	0.04106663078001
0.419316112995	0.772029578686	0.44666588008361
0.418184787035	0.834333717823	0.52802917122681
